57
100
80	1
79	1
78	1
77	1
76	1
75	1
74	1
73	1
72	2
70	2
69	2
68	2
67	4
66	2
65	4
62	2
61	3
60	2
59	1
58	2
57	1
56	1
55	1
54	1
52	3
51	2
50	2
48	2
47	2
46	1
45	2
44	2
43	4
42	4
41	2
39	1
38	2
37	1
36	1
35	4
34	1
32	2
30	2
28	1
27	1
26	2
24	2
23	2
22	2
21	2
19	1
18	1
16	2
15	1
13	1
12	1
11	1
